NAME : P-n16-k8
COMMENT : (Augerat et al, No of trucks: 8, Optimal value: 450)
TYPE : CVRP
DIMENSION : 16
EDGE_WEIGHT_TYPE : EUC_2D
CAPACITY : 35
NODE_COORD_SECTION
1 49 49
2 37 52
3 30 40
4 52 64
5 31 62
6 52 33
7 58 48
8 58 27
9 37 69
DEMAND_SECTION
1 0
2 19
3 30
4 16
5 23
6 11
7 31
8 15
9 28
DEPOT_SECTION
 1
 -1
EOF
